Route #1: 42 26 7 37 2 31 21
Route #2: 41 43 19 30 11 38 48
Route #3: 39 17 10 18 23 27 50 16 20 35
Route #4: 45 28 9 6 52 8 36 34
Route #5: 44 3 49 33 14 47 51 13
Route #6: 24 22 15 40 25 32 4 29 12
Route #7: 46 5
cost 929
